p cnf 100 405
1 2 3 4 5 0
6 7 8 9 10 0
11 12 13 14 15 0
16 17 18 19 20 0
21 22 23 24 25 0
26 27 28 29 30 0
31 32 33 34 35 0
36 37 38 39 40 0
41 42 43 44 45 0
46 47 48 49 50 0
51 52 53 54 55 0
56 57 58 59 60 0
61 62 63 64 65 0
66 67 68 69 70 0
71 72 73 74 75 0
76 77 78 79 80 0
81 82 83 84 85 0
86 87 88 89 90 0
91 92 93 94 95 0
96 97 98 99 100 0
-1 -11 0
-2 -12 0
-3 -13 0
-4 -14 0
-5 -15 0
-1 -16 0
-2 -17 0
-3 -18 0
-4 -19 0
-5 -20 0
-1 -36 0
-2 -37 0
-3 -38 0
-4 -39 0
-5 -40 0
-1 -41 0
-2 -42 0
-3 -43 0
-4 -44 0
-5 -45 0
-1 -51 0
-2 -52 0
-3 -53 0
-4 -54 0
-5 -55 0
-1 -61 0
-2 -62 0
-3 -63 0
-4 -64 0
-5 -65 0
-1 -66 0
-2 -67 0
-3 -68 0
-4 -69 0
-5 -70 0
-1 -71 0
-2 -72 0
-3 -73 0
-4 -74 0
-5 -75 0
-1 -76 0
-2 -77 0
-3 -78 0
-4 -79 0
-5 -80 0
-6 -21 0
-7 -22 0
-8 -23 0
-9 -24 0
-10 -25 0
-6 -36 0
-7 -37 0
-8 -38 0
-9 -39 0
-10 -40 0
-6 -51 0
-7 -52 0
-8 -53 0
-9 -54 0
-10 -55 0
-6 -56 0
-7 -57 0
-8 -58 0
-9 -59 0
-10 -60 0
-6 -66 0
-7 -67 0
-8 -68 0
-9 -69 0
-10 -70 0
-6 -76 0
-7 -77 0
-8 -78 0
-9 -79 0
-10 -80 0
-11 -16 0
-12 -17 0
-13 -18 0
-14 -19 0
-15 -20 0
-11 -21 0
-12 -22 0
-13 -23 0
-14 -24 0
-15 -25 0
-11 -26 0
-12 -27 0
-13 -28 0
-14 -29 0
-15 -30 0
-11 -36 0
-12 -37 0
-13 -38 0
-14 -39 0
-15 -40 0
-11 -51 0
-12 -52 0
-13 -53 0
-14 -54 0
-15 -55 0
-11 -56 0
-12 -57 0
-13 -58 0
-14 -59 0
-15 -60 0
-11 -76 0
-12 -77 0
-13 -78 0
-14 -79 0
-15 -80 0
-11 -81 0
-12 -82 0
-13 -83 0
-14 -84 0
-15 -85 0
-11 -91 0
-12 -92 0
-13 -93 0
-14 -94 0
-15 -95 0
-11 -96 0
-12 -97 0
-13 -98 0
-14 -99 0
-15 -100 0
-16 -21 0
-17 -22 0
-18 -23 0
-19 -24 0
-20 -25 0
-16 -26 0
-17 -27 0
-18 -28 0
-19 -29 0
-20 -30 0
-16 -31 0
-17 -32 0
-18 -33 0
-19 -34 0
-20 -35 0
-16 -41 0
-17 -42 0
-18 -43 0
-19 -44 0
-20 -45 0
-16 -56 0
-17 -57 0
-18 -58 0
-19 -59 0
-20 -60 0
-16 -66 0
-17 -67 0
-18 -68 0
-19 -69 0
-20 -70 0
-16 -71 0
-17 -72 0
-18 -73 0
-19 -74 0
-20 -75 0
-16 -81 0
-17 -82 0
-18 -83 0
-19 -84 0
-20 -85 0
-16 -86 0
-17 -87 0
-18 -88 0
-19 -89 0
-20 -90 0
-16 -91 0
-17 -92 0
-18 -93 0
-19 -94 0
-20 -95 0
-16 -96 0
-17 -97 0
-18 -98 0
-19 -99 0
-20 -100 0
-21 -26 0
-22 -27 0
-23 -28 0
-24 -29 0
-25 -30 0
-21 -36 0
-22 -37 0
-23 -38 0
-24 -39 0
-25 -40 0
-21 -56 0
-22 -57 0
-23 -58 0
-24 -59 0
-25 -60 0
-21 -61 0
-22 -62 0
-23 -63 0
-24 -64 0
-25 -65 0
-21 -71 0
-22 -72 0
-23 -73 0
-24 -74 0
-25 -75 0
-21 -96 0
-22 -97 0
-23 -98 0
-24 -99 0
-25 -100 0
-26 -46 0
-27 -47 0
-28 -48 0
-29 -49 0
-30 -50 0
-26 -51 0
-27 -52 0
-28 -53 0
-29 -54 0
-30 -55 0
-26 -56 0
-27 -57 0
-28 -58 0
-29 -59 0
-30 -60 0
-26 -61 0
-27 -62 0
-28 -63 0
-29 -64 0
-30 -65 0
-26 -66 0
-27 -67 0
-28 -68 0
-29 -69 0
-30 -70 0
-26 -71 0
-27 -72 0
-28 -73 0
-29 -74 0
-30 -75 0
-26 -81 0
-27 -82 0
-28 -83 0
-29 -84 0
-30 -85 0
-31 -41 0
-32 -42 0
-33 -43 0
-34 -44 0
-35 -45 0
-31 -66 0
-32 -67 0
-33 -68 0
-34 -69 0
-35 -70 0
-31 -71 0
-32 -72 0
-33 -73 0
-34 -74 0
-35 -75 0
-31 -81 0
-32 -82 0
-33 -83 0
-34 -84 0
-35 -85 0
-36 -61 0
-37 -62 0
-38 -63 0
-39 -64 0
-40 -65 0
-36 -86 0
-37 -87 0
-38 -88 0
-39 -89 0
-40 -90 0
-41 -56 0
-42 -57 0
-43 -58 0
-44 -59 0
-45 -60 0
-41 -61 0
-42 -62 0
-43 -63 0
-44 -64 0
-45 -65 0
-41 -86 0
-42 -87 0
-43 -88 0
-44 -89 0
-45 -90 0
-41 -91 0
-42 -92 0
-43 -93 0
-44 -94 0
-45 -95 0
-46 -71 0
-47 -72 0
-48 -73 0
-49 -74 0
-50 -75 0
-46 -81 0
-47 -82 0
-48 -83 0
-49 -84 0
-50 -85 0
-46 -86 0
-47 -87 0
-48 -88 0
-49 -89 0
-50 -90 0
-46 -96 0
-47 -97 0
-48 -98 0
-49 -99 0
-50 -100 0
-51 -61 0
-52 -62 0
-53 -63 0
-54 -64 0
-55 -65 0
-51 -71 0
-52 -72 0
-53 -73 0
-54 -74 0
-55 -75 0
-51 -81 0
-52 -82 0
-53 -83 0
-54 -84 0
-55 -85 0
-56 -91 0
-57 -92 0
-58 -93 0
-59 -94 0
-60 -95 0
-56 -96 0
-57 -97 0
-58 -98 0
-59 -99 0
-60 -100 0
-66 -71 0
-67 -72 0
-68 -73 0
-69 -74 0
-70 -75 0
-66 -91 0
-67 -92 0
-68 -93 0
-69 -94 0
-70 -95 0
-66 -96 0
-67 -97 0
-68 -98 0
-69 -99 0
-70 -100 0
-71 -76 0
-72 -77 0
-73 -78 0
-74 -79 0
-75 -80 0
-71 -91 0
-72 -92 0
-73 -93 0
-74 -94 0
-75 -95 0
-71 -96 0
-72 -97 0
-73 -98 0
-74 -99 0
-75 -100 0
-76 -86 0
-77 -87 0
-78 -88 0
-79 -89 0
-80 -90 0
-76 -91 0
-77 -92 0
-78 -93 0
-79 -94 0
-80 -95 0
-81 -91 0
-82 -92 0
-83 -93 0
-84 -94 0
-85 -95 0
